NAME: CMT2_7
TYPE: CVRP
COMMENT: 835.26 - Cluster Nr.7
DIMENSION: 8
CAPACITY: 140
EDGE_WEIGHT_TYPE: EUC_2D
NODE_COORD_TYPE: TWOD_COORDS
NODE_COORD_SECTION: 
7 40 40
1 50 30
5 51 42
6 55 34
4 54 38
8 62 35
2 50 40
3 55 45
DEPOT_SECTION: 
7
-1
DEMAND_SECTION: 
5 27
3 16
4 19
8 12
2 19
7 0
1 21
6 17
EOF
